30
254
174
true
0.25
36 20 28 16 17 32 45 40 42 46 47 35 10 6 20 8 16 7 3 29 8 22 29 48 23 6 21 31 20 7
62 72 1 -27 -32 -86 -30 27 64 77 60 90 -76 59 44 21 -21 -44 -72 -78 43 59 21 25 -91 82 16 68 -14 -50
0 0 0 0 -17 -31 0 0 0 0 0 0 -95 0 94 0 0 0 0 95 0 -9 0 0 0 0 0 0 0 0
0 97 -75 0 0 0 99 0 -18 0 0 0 0 0 0 0 0 0 0 80 0 0 0 0 0 0 0 0 0
0 50 0 0 0 0 0 0 0 0 -40 0 0 9 0 0 0 0 -21 70 0 -39 0 0 0 0 0 0
0 0 0 -32 0 0 0 -7 0 0 0 0 0 0 0 0 0 0 0 -20 0 7 -62 0 0 0 0
0 0 -4 0 -45 -48 0 0 -82 26 0 0 0 0 29 82 0 65 4 0 0 0 0 0 0 0
0 0 65 0 0 0 0 0 -35 97 0 58 30 0 0 0 0 0 0 0 99 0 0 0 0
0 0 0 -47 0 0 0 0 0 0 0 0 0 0 84 0 -73 0 0 0 -55 31 0 0
0 0 0 0 -56 0 82 0 -94 0 -93 0 0 0 0 -11 -16 0 0 0 0 0 0
0 0 0 -18 -44 0 0 0 0 0 -34 -37 -95 0 0 -74 0 0 74 79 41 11
0 0 0 -74 -53 0 0 0 0 78 0 0 0 0 0 76 -4 0 0 0 0
0 86 0 0 0 0 0 0 0 0 0 0 60 0 -62 0 -39 0 0 0
0 -24 0 0 -6 0 0 0 0 0 0 0 32 0 0 0 0 72 0
0 0 0 -28 0 0 0 0 0 0 0 86 0 -25 59 0 0 0
0 -63 0 0 0 0 -25 0 0 0 100 -61 0 0 0 25 0
0 0 0 0 0 0 55 0 0 0 0 0 15 0 0 0
0 0 0 0 0 0 -26 0 86 0 0 0 0 0 0
0 42 0 0 -77 60 0 0 0 0 0 0 -70 0
0 0 0 0 0 0 82 0 0 0 0 -24 -54
0 0 0 0 12 0 0 0 0 0 0 0
0 0 0 0 81 0 0 0 -92 0 -3
0 13 0 0 0 0 -77 0 0 0
0 0 0 0 0 28 0 0 0
0 0 0 -80 0 0 0 0
0 0 0 0 0 -28 0
0 0 0 0 0 31
0 0 -50 0 0
0 0 0 0
0 -69 0
0 -33
0 0 0 0 0 0 0 0 -82 0 0 0 84 0 0 0 0 0 -8 0 0 0 0 0 0 -71 0 0 -53
0 0 9 0 0 -31 0 0 -5 0 0 0 0 -31 0 0 -28 70 -31 0 0 72 0 -41 0 -85 1 0
0 0 0 0 -31 0 0 0 0 0 0 0 0 0 -13 -65 -41 0 0 0 -84 0 0 0 -15 0 0
0 71 0 0 0 0 0 -37 0 -4 0 96 -60 0 0 -48 0 -15 0 0 0 0 0 0 0 89
0 0 -80 0 0 0 0 -50 0 0 -96 0 0 0 0 0 -30 13 0 0 0 0 51 16 76
0 0 0 0 0 0 0 -83 0 0 0 0 0 65 0 0 0 0 0 0 51 0 0 0
0 -3 0 0 0 0 0 -5 0 0 0 0 0 0 0 27 0 0 19 0 -97 0 0
0 0 0 0 0 3 0 -8 0 0 0 0 82 0 0 0 -94 0 0 0 0 0
0 0 0 33 0 -61 0 0 0 -6 0 17 0 0 34 0 0 0 0 -91 0
0 0 66 77 0 0 40 77 0 0 -10 0 0 0 0 0 0 0 0 0
0 0 58 0 0 0 0 0 0 0 0 -86 0 0 0 48 -16 0 0
0 -100 0 0 -61 0 0 0 0 0 46 0 0 0 0 0 -26 0
0 0 0 -22 0 0 0 -27 75 0 0 -51 53 0 92 -62 0
0 0 0 0 0 -19 0 0 0 0 0 0 -43 38 0 -16
0 -66 0 65 0 0 0 0 -49 -31 0 0 0 0 0
0 0 0 0 40 0 0 20 0 0 0 0 0 0
0 0 0 0 0 0 0 0 0 0 0 0 0
0 0 0 14 0 0 0 0 0 -85 -81 0
0 0 0 0 -70 0 0 0 0 0 0
0 57 -65 0 0 0 0 0 0 0
0 0 0 0 0 0 0 94 0
0 0 0 0 0 0 0 0
0 0 -63 0 0 0 40
0 0 76 -57 0 0
0 0 0 0 0
0 0 0 0
0 -97 0
0 0
0
0 0 0 86 0 0 0 0 0 0 26 0 0 0 0 0 0 0 0 0 0 0 0 -44 0 0 -59 0
0 95 0 -44 -27 62 0 0 0 0 25 0 78 0 0 0 0 68 0 -82 33 0 0 0 43 -60 0
0 0 0 0 0 0 0 -66 0 0 0 0 93 0 31 0 79 0 0 0 0 -25 0 0 0 0
0 0 0 0 0 0 -50 0 0 13 0 0 0 0 0 90 0 0 0 0 0 0 0 0 0
0 0 0 -88 0 0 100 0 0 52 0 0 -8 0 -42 0 -15 78 -60 0 -43 0 0 -95
0 0 -78 0 0 0 0 -37 0 0 0 0 -85 0 35 0 68 0 0 0 0 0 0
0 0 93 -2 -72 28 0 0 0 43 0 0 43 0 0 0 0 0 0 0 75 60
0 0 0 0 -7 0 0 0 0 0 -2 0 0 -44 0 0 63 0 0 0 0
0 0 0 0 0 0 0 0 0 0 0 0 0 37 4 -79 0 0 0 0
0 0 0 -88 -72 -15 0 46 0 0 0 0 0 -7 17 0 0 0 0
0 0 0 0 0 0 -52 0 0 -94 0 0 0 0 0 0 0 0
0 0 48 0 0 0 0 0 0 -77 0 0 0 0 0 80 0
0 -65 -67 0 0 0 0 54 0 0 0 0 0 0 0 0
0 0 0 0 0 0 0 0 0 74 0 0 0 71 -64
0 0 -99 49 -14 0 48 0 0 73 0 0 0 -97
0 -10 0 0 -14 0 0 0 0 0 0 66 0
0 0 -81 0 0 0 54 45 0 0 0 0
0 0 0 0 0 0 0 0 0 0 0
0 0 0 0 0 0 79 0 0 0
0 0 0 93 0 0 0 0 0
0 0 0 0 0 0 0 0
0 0 0 0 0 62 0
0 0 0 23 -77 0
0 0 0 0 0
0 -65 0 0
0 -61 0
0 0
0
0 0 0 0 0 0 0 0 0 0 36 0 16 0 0 95 0 0 0 0 0 0 49 -1 12 0 -76
0 76 0 0 0 -54 92 0 0 0 -31 0 0 -55 0 0 0 0 0 0 0 0 -22 -92 -45 0
0 83 0 0 0 0 0 0 0 -16 0 0 0 0 0 -9 23 0 0 0 0 3 0 -74 0
0 0 0 0 0 0 0 0 0 -47 0 0 34 0 0 0 0 0 0 0 0 12 0 -93
0 0 0 0 0 0 0 0 -53 -16 0 0 81 0 0 0 0 16 0 0 0 0 41
0 13 0 -69 0 -27 0 0 68 0 0 0 0 0 25 0 0 55 0 58 -17 0
0 71 0 0 0 0 64 0 -78 0 0 0 -94 40 0 0 0 0 0 0 0
0 0 -70 0 0 0 0 0 0 0 0 0 0 0 0 -33 0 0 0 0
0 0 0 0 0 0 -100 0 0 0 83 0 0 0 0 0 0 0 0
0 0 0 0 -27 68 89 0 0 0 0 0 0 0 0 0 0 23
0 0 0 -62 0 0 0 85 0 0 0 0 91 0 -61 76 -61
0 0 0 0 0 0 -76 0 0 0 -20 0 0 0 0 77
0 0 0 0 0 0 17 0 0 0 50 0 0 0 -13
0 0 -91 0 0 0 0 0 0 0 73 26 -73 0
0 79 -58 0 0 -4 0 -63 0 0 -75 0 -95
0 0 0 0 -89 0 0 0 0 0 0 0
0 0 -33 0 67 12 0 0 0 0 0
0 0 0 14 0 0 0 0 0 23
0 -47 0 0 89 0 0 0 16
0 0 0 -67 0 0 0 80
0 0 0 49 0 0 0
0 0 -49 -50 0 0
0 0 -51 0 0
0 0 0 0
0 0 0
0 0
0
0 0 0 0 0 0 0 0 -90 0 -41 0 0 0 0 0 0 81 -72 0 0 0 0 0 0 0
0 0 0 0 0 0 0 -5 0 0 0 0 96 0 0 61 6 0 0 0 4 0 0 0 -96
0 52 0 0 0 64 0 0 0 0 -78 0 0 0 0 17 0 0 0 0 0 0 0 0
0 0 0 0 23 0 -7 0 81 0 -1 0 -28 0 66 12 0 0 41 0 0 0 0
0 39 0 -62 0 -78 0 0 0 0 0 0 0 77 0 0 0 0 0 0 0 14
0 0 16 0 0 9 0 0 63 58 0 0 0 0 -38 0 -19 0 0 0 -66
0 0 0 0 0 0 8 0 0 0 0 0 0 0 53 89 0 0 0 -33
0 -89 0 0 0 1 0 0 0 0 0 0 0 0 0 0 0 0 0
0 0 0 0 0 0 0 0 -13 0 0 0 0 0 0 0 93 63
0 0 61 0 0 -43 0 60 0 -90 0 0 31 0 0 0 0
0 -7 0 0 0 0 0 0 0 0 2 0 0 -30 0 0
0 0 0 0 -31 0 38 0 0 0 -31 0 -40 0 -45
0 0 70 0 0 0 0 -61 0 0 0 0 0 0
0 0 0 63 0 -80 -38 0 0 -2 0 0 0
0 65 0 0 71 0 0 -30 0 0 0 -74
0 0 -56 0 0 0 0 -79 0 78 0
0 -31 -14 0 -85 40 0 75 0 0
0 0 0 0 -59 78 0 0 0
0 0 0 0 0 0 0 0
0 -30 0 0 0 -86 0
0 0 55 -89 22 0
0 0 0 0 0
0 0 -88 0
0 19 0
0 0
0
0 0 0 0 0 0 -82 0 -28 83 -75 0 0 0 0 0 0 0 0 -86 0 0 0 0 0
0 0 0 0 0 0 0 -71 0 0 -64 0 0 0 0 60 0 0 0 -8 0 -11 0 13
0 0 0 -46 0 -19 0 52 0 0 0 0 0 -93 0 0 -25 -42 0 0 0 0 0
0 0 0 0 67 0 -6 -88 26 -80 0 0 0 0 0 0 37 -71 0 0 0 0
0 0 0 0 -47 -65 50 0 -76 -41 0 0 88 0 -29 0 0 -23 0 0 0
0 0 78 0 0 0 0 0 79 0 -28 0 0 0 0 0 0 0 0 0
0 0 0 0 0 0 -36 0 9 0 1 0 0 0 0 0 0 0 0
0 0 0 39 0 -14 0 55 0 0 0 0 0 0 -30 88 0 42
0 0 0 0 0 0 0 -8 -45 0 0 0 0 0 14 0 -75
0 0 0 -57 51 24 0 0 58 0 0 0 0 0 0 0
0 0 -7 0 0 0 0 0 -39 0 0 0 0 0 56
0 0 0 0 0 89 0 0 0 -71 95 -41 0 -16
0 0 0 -72 -90 0 89 19 0 76 0 0 0
0 91 0 0 8 0 0 0 0 0 -92 0
0 0 0 -36 0 0 0 19 0 0 24
0 -18 0 0 -100 88 0 -49 0 0
0 0 19 0 0 0 0 0 -50
0 0 0 0 0 -99 0 0
0 0 0 16 0 -13 -36
0 -84 0 0 0 0
0 0 0 0 -38
0 -74 0 0
0 0 0
0 -65
0
0 0 0 0 0 -72 -11 0 0 0 0 -77 0 0 0 0 0 -59 96 0 0 0 0 25
0 0 0 0 -5 0 0 -90 0 0 0 0 34 -83 57 0 0 0 0 -95 0 0 0
0 0 0 0 0 0 0 0 0 0 0 0 0 0 0 0 -24 0 -73 -12 0 0
0 0 0 0 -59 -68 74 100 -55 0 0 -22 0 0 0 0 0 0 0 0 0
0 0 0 0 0 0 -59 0 0 0 0 0 0 49 0 0 0 -23 0 -24
0 0 0 0 46 0 0 0 0 0 0 0 0 0 0 0 -100 0 48
0 0 0 0 98 77 0 0 -67 0 0 0 0 0 0 0 46 0
0 0 0 0 0 0 0 0 0 0 0 38 0 17 0 0 0
0 0 0 0 0 2 0 0 10 0 0 0 -96 0 0 0
0 0 -13 0 0 0 0 8 0 0 0 0 0 0 0
0 0 0 0 0 0 27 0 48 0 0 0 0 0
0 29 0 0 0 44 17 0 84 0 -19 0 0
0 0 0 55 0 0 -5 -10 0 13 12 30
0 0 0 0 -7 -81 0 0 0 0 0
0 0 0 0 0 0 0 0 0 0
0 0 0 28 0 0 0 0 0
0 0 0 0 0 0 0 0
0 0 0 0 0 -64 77
0 0 0 0 4 0
0 91 0 0 -91
0 0 0 0
0 0 82
0 81
0
0 0 1 -47 0 0 -99 0 0 -62 74 0 0 0 -78 0 0 0 -33 48 92 38 0
0 0 0 0 -28 0 0 0 -3 0 0 -57 0 -65 0 0 0 -14 0 0 0 0
0 0 -15 -16 0 0 -98 0 0 0 -93 0 0 0 9 0 0 0 0 0 0
0 0 0 0 0 0 0 0 0 0 0 0 0 0 0 0 0 -43 0 0
0 0 0 0 0 89 0 0 0 -13 0 0 0 67 0 -62 -10 -69 0
0 0 0 0 0 0 0 0 0 0 0 45 0 0 0 -37 0 58
0 0 83 0 0 0 0 0 0 0 97 -34 0 0 0 0 0
0 0 0 0 -83 -99 0 73 0 0 0 0 0 0 0 0
0 0 0 0 0 0 -54 -48 0 -2 0 -73 35 0 -15
0 0 0 0 35 0 0 0 -38 -40 0 0 0 0
0 0 0 -49 0 0 0 -1 0 0 -62 0 0
0 0 77 0 0 0 0 56 -85 0 0 0
0 56 0 -57 0 0 0 0 0 0 0
0 0 0 -6 -43 0 0 0 0 0
0 0 0 0 23 42 -17 -75 0
0 0 0 -38 50 0 0 0
0 29 0 0 0 0 0
0 95 -37 0 -92 0
0 0 0 40 0
0 0 0 -64
0 0 0
0 0
0
0 14 0 27 0 21 0 0 -43 67 0 -13 78 -17 0 0 0 0 0 0 0 -93
0 0 0 0 0 -93 0 45 0 0 55 0 0 0 0 0 9 7 0 0 0
0 0 0 0 0 0 0 0 0 0 4 0 0 0 79 -73 0 0 0 0
0 0 0 -61 0 7 0 -72 0 0 59 0 -50 0 0 40 0 0 -85
0 68 0 0 0 -75 0 0 -87 0 5 0 0 0 0 -74 0 0
0 0 0 -9 0 0 0 -80 0 0 0 0 0 11 0 84 0
0 0 0 0 0 -73 0 -17 0 0 0 0 0 0 0 0
0 0 -27 33 0 0 0 0 -26 0 0 0 0 65 0
0 0 0 0 -57 0 0 0 0 -36 0 0 0 -14
0 0 0 0 0 0 0 0 0 42 0 0 0
0 0 -72 0 0 0 0 0 0 0 -68 0
0 36 0 96 -31 0 0 0 0 0 -22
0 0 0 0 0 -70 0 81 0 0
0 0 0 0 0 73 0 0 57
0 0 0 0 36 75 -72 0
0 0 80 0 0 0 0
0 -56 0 0 0 0
0 46 0 0 0
0 -35 0 0
0 -60 12
0 0
0
0 0 0 0 0 -33 65 0 -67 0 0 39 0 0 0 0 0 0 0 0 0
0 0 0 27 0 0 -52 0 -57 74 0 95 0 0 -2 66 0 99 0 0
0 7 0 81 0 0 -21 -53 0 -71 0 -31 0 0 0 0 0 0 0
0 0 0 0 0 0 0 -27 0 0 0 0 0 0 47 0 38 0
0 0 0 42 0 0 0 0 0 0 0 0 0 0 0 0 13
0 12 0 -51 34 0 0 0 0 0 0 26 0 0 0 0
0 0 0 0 0 69 29 0 0 0 -1 -80 0 90 0
0 38 -35 0 0 0 0 0 0 0 0 -65 0 83
0 0 0 0 100 0 0 -83 0 0 43 -58 76
0 0 -24 44 0 0 0 0 -36 0 0 -2
0 0 0 -45 -76 79 16 0 0 0 0
0 0 0 85 53 0 0 14 96 0
0 0 -82 48 0 27 -17 0 100
0 0 67 0 67 0 0 0
0 0 0 0 0 0 0
0 0 0 -92 24 0
0 0 0 0 0
0 -70 94 0
0 0 0
0 0
0
0 0 0 0 0 0 0 0 89 0 0 0 0 0 0 0 2 0 0 0
0 0 0 0 0 0 0 0 0 0 0 -97 0 58 0 0 0 0 -88
0 87 0 74 -74 0 0 0 89 0 0 0 0 34 0 0 0 0
0 0 0 0 0 0 0 0 0 11 12 32 0 16 0 0 0
0 -52 0 0 0 0 0 14 0 0 -63 0 0 0 0 0
0 0 0 0 0 0 0 0 0 0 18 0 0 0 68
0 0 0 0 -69 19 -63 0 85 0 0 0 0 0
0 12 0 0 0 1 0 -94 -37 0 0 -88 0
0 0 -59 0 0 33 0 0 -35 0 0 0
0 -100 0 87 0 0 0 0 0 0 0
0 0 0 -93 0 22 44 91 8 0
0 0 0 0 -50 0 0 82 0
0 0 0 0 0 0 51 0
0 0 94 0 -86 0 0
0 0 0 0 0 0
0 14 0 0 0
0 0 0 0
0 0 0
0 0
0
0 0 0 -8 0 0 0 0 37 0 0 0 96 0 56 0 0 0 0
0 0 0 0 0 0 0 0 0 0 0 95 0 0 0 0 -35 0
0 0 0 0 0 0 0 0 0 34 97 -61 0 44 0 0 0
0 -92 0 0 0 0 0 0 0 22 0 0 0 0 0 84
0 0 0 95 0 -25 91 0 0 0 0 0 0 0 0
0 0 0 39 -15 0 44 -11 0 0 0 21 -63 0
0 0 0 0 0 28 0 0 0 0 0 0 0
0 0 0 0 0 0 0 46 0 0 0 0
0 0 6 0 84 0 0 0 0 0 0
0 0 0 0 0 0 0 46 0 0
0 0 0 0 61 -10 0 67 0
0 0 0 0 0 0 0 0
0 0 -27 0 0 0 32
0 0 0 90 0 -47
0 0 0 80 0
0 0 0 0
0 0 0
0 0
0
0 0 0 0 0 0 0 0 0 19 0 29 0 0 -40 0 0 50
0 0 0 -70 58 0 0 0 -79 59 0 0 0 0 -40 0 0
0 0 0 0 0 0 0 93 0 44 0 0 0 30 0 0
0 0 0 0 0 0 0 0 15 0 0 0 0 0 -33
0 0 0 -5 0 -33 0 0 0 0 -67 0 58 -21
0 0 0 -91 0 0 5 0 28 0 0 0 0
0 47 0 0 0 0 0 0 0 0 0 0
0 0 0 -86 0 -93 0 0 0 0 0
0 0 0 0 0 -58 0 0 0 0
0 0 0 -27 0 -30 0 0 -49
0 0 0 0 -78 0 99 0
0 0 19 0 0 9 0
0 0 0 -10 -19 -64
0 29 91 0 0
0 -12 0 0
0 0 0
0 0
0
0 0 0 0 0 0 0 0 0 0 -65 0 0 -31 0 0 0
0 0 0 -82 0 -19 0 0 0 0 1 0 0 17 0 80
0 0 0 0 -100 30 0 0 -66 0 0 0 0 0 0
0 0 -61 -16 0 -47 0 0 0 0 0 0 0 20
0 -2 0 0 0 0 0 0 0 0 14 69 44
0 0 0 0 0 0 0 0 0 38 0 0
0 0 0 -94 0 0 0 0 0 0 -36
0 0 0 0 -85 0 0 81 72 0
0 0 32 0 0 87 82 0 0
0 0 0 79 0 0 0 -25
0 0 0 0 0 0 0
0 0 0 0 32 0
0 0 0 2 0
0 -14 0 0
0 0 97
0 0
0
0 -70 0 8 0 0 0 -12 0 0 89 0 100 0 83 0
0 0 0 0 -38 51 0 0 0 0 0 0 0 -83 -14
0 0 53 0 0 86 0 0 0 0 0 3 0 -47
0 0 -65 -81 0 5 0 89 5 0 0 0 0
0 0 -16 0 29 -19 0 0 0 0 0 0
0 0 0 0 -40 0 -56 0 0 0 0
0 -58 0 0 0 0 36 0 0 -32
0 0 0 -57 0 0 96 57 0
0 0 0 0 0 0 0 0
0 0 3 0 0 0 0
0 84 0 0 0 0
0 58 0 0 22
0 0 79 0
0 0 0
0 0
0
0 0 0 0 0 0 0 0 0 0 0 0 0 0 0
0 0 0 0 -11 0 0 0 0 0 0 0 0 0
0 -19 0 70 -53 0 0 0 0 0 0 0 -98
0 0 0 -42 -39 0 0 0 -8 -60 0 59
0 0 0 0 0 65 0 -13 0 0 0
0 0 0 0 -18 0 0 0 0 0
0 0 0 0 0 0 0 3 0
0 -15 0 0 0 0 0 0
0 95 77 0 0 0 0
0 0 0 0 0 0
0 0 -11 5 0
0 26 0 36
0 65 0
0 0
0
0 0 21 0 0 0 0 73 0 0 0 0 0 0
0 0 0 0 0 0 40 0 0 0 0 0 0
0 -14 0 -68 0 0 0 0 34 0 -100 -8
0 0 0 0 0 -64 0 0 79 0 0
0 0 0 0 0 0 0 0 100 -49
0 -1 -21 0 0 0 0 -58 -10
0 0 -82 0 0 0 0 0
0 0 0 0 0 0 -15
0 0 0 0 0 0
0 0 0 0 -91
0 0 0 0
0 0 0
0 0
0
0 -89 0 -96 -45 0 18 71 0 0 0 19 0
0 3 0 21 0 0 0 0 0 34 78 96
0 37 0 0 0 0 0 0 0 0 0
0 0 0 0 -57 -47 0 0 50 0
0 -75 0 0 0 3 0 0 -53
0 27 0 -38 0 0 0 0
0 0 0 0 0 0 0
0 0 0 66 0 0
0 -81 -3 0 0
0 0 0 0
0 0 0
0 0
0
0 0 0 0 0 0 0 9 0 -68 0 -48
0 0 0 0 0 0 0 12 -80 0 97
0 0 0 0 81 4 -32 0 0 0
0 -37 0 -90 0 0 0 35 0
0 -44 0 0 0 33 0 -80
0 -54 -94 -21 0 0 0
0 -55 100 0 0 -24
0 0 0 0 0
0 0 0 0
0 0 -1
0 0
0
0 0 0 0 0 0 0 0 0 0 0
0 0 0 0 0 0 0 0 0 0
0 0 0 0 0 0 0 0 0
0 0 0 0 0 38 0 0
0 0 59 0 0 0 0
0 0 0 -81 0 19
0 0 0 91 0
0 0 -67 0
0 0 0
0 0
0
0 0 0 0 0 0 0 0 56 0
0 0 54 0 -55 0 0 0 0
0 0 0 0 0 0 42 0
0 -1 0 8 0 0 -24
0 0 0 -71 0 -34
0 0 0 -39 0
0 64 -86 0
0 0 0
0 -92
0
0 0 10 24 0 0 0 0 0
0 0 56 -90 -69 0 0 0
0 -93 0 0 0 0 0
0 0 0 0 77 0
0 69 91 0 0
0 0 0 0
0 0 0
0 0
0
0 0 0 -35 0 0 0 32
0 0 0 -96 0 0 0
0 0 0 0 0 0
0 0 0 0 0
0 0 0 0
0 0 -49
0 0
0
0 0 0 0 0 0 -94
0 0 0 0 24 0
0 -11 0 -55 0
0 0 0 36
0 0 0
0 0
0
0 0 0 -58 0 0
0 0 0 0 0
0 0 0 0
0 0 0
0 0
0
0 52 -42 0 99
0 0 -17 0
0 0 14
0 0
0
0 0 0 0
0 0 0
0 0
0
0 -6 0
0 0
0
0 0
0
0
-632 375 -51 -113 -823 354 -1135 -684 854 -546 1863 -823 350 668 -192 -233 -403 -1120 -35 -599 133 1176 -825 604 -528 639 206 -397 325 -527
-17.555555555555557 18.75 -1.8214285714285714 -7.0625 -48.411764705882355 11.0625 -25.22222222222222 -17.1 20.333333333333332 -11.869565217391305 39.638297872340424 -23.514285714285716 35.0 111.33333333333333 -9.6 -29.125 -25.1875 -160.0 -11.666666666666666 -20.655172413793103 16.625 53.45454545454545 -28.448275862068964 12.583333333333334 -22.956521739130434 106.5 9.80952380952381 -12.806451612903226 16.25 -75.28571428571429
